NAME : rnd10_20.tsp
TYPE : TSP
DIMENSION : 20
EDGE_WEIGHT_TYPE : EUC_2D
NODE_COORD_SECTION
0 631 354
1 344 670
2 612 43
3 342 908
4 930 419
5 310 232
6 534 495
7 531 551
8 841 188
9 164 834
10 682 749
11 432 626
12 333 325
13 500 385
14 853 801
15 5 334
16 291 890
17 517 784
18 404 490
19 436 554
